% clingo version 5.3.0
% Reading from ...rk_instances/benchmark_instance_4-1.lp ...
% Solving...
% Answer: 4
ANSWER
u_piece(1). u_piece(2). u_piece(9). u_piece(13). l_piece(4,3,8). l_piece(14,15,10). l_piece(12,11,16). num_u_pieces(4). num_l_pieces(3).
COST 4
OPTIMUM
% 
% Models         : 4
%   Optimum      : yes
% Optimization   : 4
% Calls          : 1
% Time           : 0.014s (Solving: 0.00s 1st Model: 0.00s Unsat: 0.00s)
% CPU Time       : 0.012s
